c Sudoku solution
p cnf 729 0
128 0
144 0
211 0
223 0
398 0
414 0
461 0
515 0
537 0
562 0
593 0
649 0
671 0
521 0
752 0
777 0
788 0
812 0
866 0
883 0
927 0
936 0
796 0
963 0
999 0
918 0
242 0
848 0
857 0
769 0
954 0
713 0
616 0
622 0
429 0
326 0
839 0
731 0
745 0
941 0
724 0
825 0
891 0
874 0
546 0
558 0
478 0
486 0
492 0
455 0
447 0
653 0
664 0
433 0
638 0
343 0
173 0
351 0
268 0
579 0
584 0
276 0
156 0
259 0
119 0
317 0
365 0
167 0
975 0
982 0
372 0
389 0
132 0
334 0
235 0
181 0
195 0
287 0
294 0
685 0
697 0
